sat
(model
(define-fun |main$tmp_guard0#3| () (_ BitVec 8) #b00000001)
(define-fun |goto_symex::&92;guard#1| () Bool true)
(define-fun |goto_symex::&92;guard#2| () Bool false)
(define-fun array_of.0 () (Array (_ BitVec 32) (_ BitVec 1)) ((as const (Array (_ BitVec 32) (_ BitVec 1))) #b0))
(define-fun |main::1::t1519!0@1| () (_ BitVec 32) #b00000000000000000000000000000000)
(define-fun |main::1::t1520!0@1| () (_ BitVec 32) #b00000000000000000000000000000000)
(define-fun |__CPROVER_next_thread_id#3| () (_ BitVec 32) #b00000000000000000000000000000001)
(define-fun |main::1::t1521!0@1| () (_ BitVec 32) #b00000000000000000000000000000000)
(define-fun |__CPROVER_next_thread_id#6| () (_ BitVec 32) #b00000000000000000000000000000010)
(define-fun |main::1::t1522!0@1| () (_ BitVec 32) #b00000000000000000000000000000000)
(define-fun |__CPROVER_next_thread_id#9| () (_ BitVec 32) #b00000000000000000000000000000011)
(define-fun |__unbuffered_cnt#2| () (_ BitVec 32) #b00000000000000000000000000000100)
(define-fun |z$w_buff0_used#2| () (_ BitVec 8) #b00000000)
(define-fun |z$r_buff0_thd0#2| () (_ BitVec 8) #b00000000)
(define-fun |z$w_buff0#2| () (_ BitVec 32) #b00000000000000000000000000000010)
(define-fun |z$w_buff1_used#2| () (_ BitVec 8) #b00000000)
(define-fun |z$r_buff1_thd0#2| () (_ BitVec 8) #b00000000)
(define-fun |z$w_buff1#2| () (_ BitVec 32) #b00000000000000000000000000000000)
(define-fun |z#2| () (_ BitVec 32) #b00000000000000000000000000000010)
(define-fun |z#4| () (_ BitVec 32) #b00000000000000000000000000000010)
(define-fun |z$w_buff0_used#6| () (_ BitVec 8) #b00000000)
(define-fun |z$w_buff1_used#6| () (_ BitVec 8) #b00000000)
(define-fun |z$r_buff0_thd0#8| () (_ BitVec 8) #b00000000)
(define-fun |z$r_buff1_thd0#7| () (_ BitVec 8) #b00000000)
(define-fun |nondet_symex::nondet0| () (_ BitVec 32) #b00000000000000000000000000000000)
(define-fun |weak$$choice0#2| () (_ BitVec 8) #b00000000)
(define-fun |weak$$choice0#3| () (_ BitVec 8) #b00000000)
(define-fun |nondet_symex::nondet1| () (_ BitVec 32) #b00000000000000000000000000000000)
(define-fun |weak$$choice2#2| () (_ BitVec 8) #b00000000)
(define-fun |weak$$choice2#3| () (_ BitVec 8) #b00000000)
(define-fun |z$flush_delayed#2| () (_ BitVec 8) #b00000000)
(define-fun |z$flush_delayed#3| () (_ BitVec 8) #b00000000)
(define-fun |z#6| () (_ BitVec 32) #b00000000000000000000000000000010)
(define-fun |z$mem_tmp#2| () (_ BitVec 32) #b00000000000000000000000000000010)
(define-fun |z$mem_tmp#3| () (_ BitVec 32) #b00000000000000000000000000000000)
(define-fun |z$w_buff0_used#11| () (_ BitVec 8) #b00000000)
(define-fun |z$r_buff0_thd0#11| () (_ BitVec 8) #b00000000)
(define-fun |z$w_buff1_used#9| () (_ BitVec 8) #b00000000)
(define-fun |z$r_buff1_thd0#9| () (_ BitVec 8) #b00000000)
(define-fun |z$w_buff0#4| () (_ BitVec 32) #b00000000000000000000000000000010)
(define-fun |z$w_buff1#4| () (_ BitVec 32) #b00000000000000000000000000000000)
(define-fun |z#9| () (_ BitVec 32) #b00000000000000000000000000000010)
(define-fun |z$w_buff0#10| () (_ BitVec 32) #b00000000000000000000000000000010)
(define-fun |z$w_buff1#10| () (_ BitVec 32) #b00000000000000000000000000000000)
(define-fun |z$w_buff0_used#23| () (_ BitVec 8) #b00000000)
(define-fun |z$w_buff1_used#17| () (_ BitVec 8) #b00000000)
(define-fun |z$r_buff0_thd0#33| () (_ BitVec 8) #b00000000)
(define-fun |z$r_buff1_thd0#19| () (_ BitVec 8) #b00000000)
(define-fun |x#2| () (_ BitVec 32) #b00000000000000000000000000000010)
(define-fun |y#2| () (_ BitVec 32) #b00000000000000000000000000000010)
(define-fun |__unbuffered_p3_EAX#2| () (_ BitVec 32) #b00000000000000000000000000000000)
(define-fun |main$tmp_guard1#2| () (_ BitVec 8) #b00000000)
(define-fun |main$tmp_guard1#3| () (_ BitVec 8) #b00000000)
(define-fun |z#13| () (_ BitVec 32) #b00000000000000000000000000000010)
(define-fun |z$flush_delayed#6| () (_ BitVec 8) #b00000000)
(define-fun |main$tmp_guard1#6| () (_ BitVec 8) #b00000000)
(define-fun |pthread_create::1::this_thread_id!1@0#0| () (_ BitVec 32) #b00000000000000000000000000000000)
(define-fun |__unbuffered_cnt#4| () (_ BitVec 32) #b00000000000000000000000000000001)
(define-fun |nondet_symex::nondet2| () (_ BitVec 32) #b00000000000000000000000000000000)
(define-fun |__CPROVER_threads_exited#2| () (Array (_ BitVec 32) (_ BitVec 1)) (store ((as const (Array (_ BitVec 32) (_ BitVec 1))) #b0) #b00000000000000000000000000000000 #b1))
(define-fun |pthread_create::1::this_thread_id!2@0#0| () (_ BitVec 32) #b00000000000000000000000000000000)
(define-fun |__unbuffered_cnt#7| () (_ BitVec 32) #b00000000000000000000000000000010)
(define-fun |nondet_symex::nondet3| () (_ BitVec 32) #b00000000000000000000000000000000)
(define-fun |__CPROVER_threads_exited#4| () (Array (_ BitVec 32) (_ BitVec 1)) (store ((as const (Array (_ BitVec 32) (_ BitVec 1))) #b0) #b00000000000000000000000000000000 #b1))
(define-fun |pthread_create::1::this_thread_id!3@0#0| () (_ BitVec 32) #b00000000000000000000000000000000)
(define-fun |z$w_buff0_used#31| () (_ BitVec 8) #b00000001)
(define-fun |z$r_buff0_thd3#2| () (_ BitVec 8) #b00000000)
(define-fun |z$w_buff0#12| () (_ BitVec 32) #b00000000000000000000000000000010)
(define-fun |z$w_buff1_used#21| () (_ BitVec 8) #b00000000)
(define-fun |z$r_buff1_thd3#2| () (_ BitVec 8) #b00000000)
(define-fun |z$w_buff1#12| () (_ BitVec 32) #b00000000000000000000000000000000)
(define-fun |z#16| () (_ BitVec 32) #b00000000000000000000000000000001)
(define-fun |__unbuffered_cnt#10| () (_ BitVec 32) #b00000000000000000000000000000000)
(define-fun |nondet_symex::nondet4| () (_ BitVec 32) #b00000000000000000000000000000000)
(define-fun |__CPROVER_threads_exited#6| () (Array (_ BitVec 32) (_ BitVec 1)) (store ((as const (Array (_ BitVec 32) (_ BitVec 1))) #b0) #b00000000000000000000000000000000 #b1))
(define-fun |pthread_create::1::this_thread_id!4@0#0| () (_ BitVec 32) #b00000000000000000000000000000000)
(define-fun |z$w_buff0#14| () (_ BitVec 32) #b00000000000000000000000000000000)
(define-fun |z$w_buff0_used#34| () (_ BitVec 8) #b00000000)
(define-fun |z$r_buff0_thd0#38| () (_ BitVec 8) #b00000000)
(define-fun |z$r_buff1_thd0#21| () (_ BitVec 8) #b00000000)
(define-fun |z$r_buff1_thd0#22| () (_ BitVec 8) #b00000000)
(define-fun |z$r_buff0_thd1#2| () (_ BitVec 8) #b00000000)
(define-fun |z$r_buff1_thd1#2| () (_ BitVec 8) #b00000000)
(define-fun |z$r_buff1_thd1#3| () (_ BitVec 8) #b00000000)
(define-fun |z$r_buff0_thd2#2| () (_ BitVec 8) #b00000000)
(define-fun |z$r_buff1_thd2#2| () (_ BitVec 8) #b00000000)
(define-fun |z$r_buff1_thd2#3| () (_ BitVec 8) #b00000000)
(define-fun |z$r_buff0_thd3#5| () (_ BitVec 8) #b00000000)
(define-fun |z$r_buff1_thd3#5| () (_ BitVec 8) #b00000000)
(define-fun |z$r_buff1_thd3#6| () (_ BitVec 8) #b00000000)
(define-fun |z$r_buff0_thd4#2| () (_ BitVec 8) #b00000000)
(define-fun |z$r_buff1_thd4#2| () (_ BitVec 8) #b00000000)
(define-fun |z$r_buff1_thd4#3| () (_ BitVec 8) #b00000000)
(define-fun |z$r_buff0_thd4#4| () (_ BitVec 8) #b00000001)
(define-fun |a#3| () (_ BitVec 32) #b00000000000000000000000000000000)
(define-fun |__unbuffered_p3_EAX#4| () (_ BitVec 32) #b00000000000000000000000000000000)
(define-fun |__unbuffered_p3_EAX#5| () (_ BitVec 32) #b00000000000000000000000000000000)
(define-fun |z$w_buff0_used#37| () (_ BitVec 8) #b00000001)
(define-fun |z$r_buff0_thd4#6| () (_ BitVec 8) #b00000001)
(define-fun |z$w_buff0#17| () (_ BitVec 32) #b00000000000000000000000000000010)
(define-fun |z$w_buff1_used#25| () (_ BitVec 8) #b00000000)
(define-fun |z$r_buff1_thd4#5| () (_ BitVec 8) #b00000000)
(define-fun |z$w_buff1#15| () (_ BitVec 32) #b00000000000000000000000000000000)
(define-fun |z#19| () (_ BitVec 32) #b00000000000000000000000000000001)
(define-fun |z#21| () (_ BitVec 32) #b00000000000000000000000000000010)
(define-fun |z$w_buff0_used#41| () (_ BitVec 8) #b00000000)
(define-fun |z$w_buff1_used#29| () (_ BitVec 8) #b00000000)
(define-fun |z$r_buff0_thd4#12| () (_ BitVec 8) #b00000001)
(define-fun |z$r_buff1_thd4#10| () (_ BitVec 8) #b00000000)
(define-fun |__unbuffered_cnt#13| () (_ BitVec 32) #b00000000000000000000000000000011)
(define-fun |__unbuffered_cnt#15| () (_ BitVec 32) #b00000000000000000000000000000100)
(define-fun |nondet_symex::nondet5| () (_ BitVec 32) #b00000000000000000000000000000000)
(define-fun |__CPROVER_threads_exited#8| () (Array (_ BitVec 32) (_ BitVec 1)) ((as const (Array (_ BitVec 32) (_ BitVec 1))) #b0))
(define-fun |main::1::t1519!0@1#1| () (_ BitVec 32) #b00000000000000000000000000000000)
(define-fun |pthread_create::1::this_thread_id!0@1#1| () (_ BitVec 32) #b00000000000000000000000000000000)
(define-fun |main::1::t1520!0@1#1| () (_ BitVec 32) #b00000000000000000000000000000000)
(define-fun |pthread_create::1::this_thread_id!0@2#1| () (_ BitVec 32) #b00000000000000000000000000000000)
(define-fun |main::1::t1521!0@1#1| () (_ BitVec 32) #b00000000000000000000000000000000)
(define-fun |pthread_create::1::this_thread_id!0@3#1| () (_ BitVec 32) #b00000000000000000000000000000000)
(define-fun |main::1::t1522!0@1#1| () (_ BitVec 32) #b00000000000000000000000000000000)
(define-fun |pthread_create::1::this_thread_id!0@4#1| () (_ BitVec 32) #b00000000000000000000000000000000)
(define-fun |main::$tmp::return_value___VERIFIER_nondet_pointer$1!0@1#1| () (_ BitVec 32) #b00000000000000000000000000000000)
(define-fun |main::$tmp::return_value___VERIFIER_nondet_pointer$2!0@1#1| () (_ BitVec 32) #b00000000000000000000000000000000)
(define-fun |P0::$tmp::return_value___VERIFIER_nondet_pointer$1!1@1#1| () (_ BitVec 32) #b00000000000000000000000000000000)
(define-fun |P1::$tmp::return_value___VERIFIER_nondet_pointer$1!2@1#1| () (_ BitVec 32) #b00000000000000000000000000000000)
(define-fun |P2::$tmp::return_value___VERIFIER_nondet_pointer$1!3@1#1| () (_ BitVec 32) #b00000000000000000000000000000000)
(define-fun |P3::$tmp::return_value___VERIFIER_nondet_pointer$1!4@1#1| () (_ BitVec 32) #b00000000000000000000000000000000)
(define-fun |memory_model::choice_rf_1_4_0_11_T_0| () Bool false)
(define-fun |__CPROVER_threads_exited#1$wclk$8| () (_ BitVec 8) #b00100011)
(define-fun |__CPROVER_threads_exited#2$rclk$8| () (_ BitVec 8) #b11111011)
(define-fun |memory_model::choice_rf_1_4_2_5_T_1| () Bool false)
(define-fun |__CPROVER_threads_exited#5$wclk$8| () (_ BitVec 8) #b11111101)
(define-fun |memory_model::choice_rf_1_4_3_17_T_2| () Bool false)
(define-fun |__CPROVER_threads_exited#7$wclk$8| () (_ BitVec 8) #b11111100)
(define-fun |memory_model::choice_rf_1_4_4_40_T_3| () Bool true)
(define-fun |__CPROVER_threads_exited#9$wclk$8| () (_ BitVec 8) #b11111010)
(define-fun |memory_model::choice_rf_2_4_0_11_T_4| () Bool false)
(define-fun |__CPROVER_threads_exited#4$rclk$8| () (_ BitVec 8) #b11111011)
(define-fun |memory_model::choice_rf_2_4_1_5_T_5| () Bool false)
(define-fun |__CPROVER_threads_exited#3$wclk$8| () (_ BitVec 8) #b11111111)
(define-fun |memory_model::choice_rf_2_4_3_17_T_6| () Bool false)
(define-fun |memory_model::choice_rf_2_4_4_40_T_7| () Bool true)
(define-fun |memory_model::choice_rf_3_16_0_11_T_8| () Bool false)
(define-fun |__CPROVER_threads_exited#6$rclk$8| () (_ BitVec 8) #b11111011)
(define-fun |memory_model::choice_rf_3_16_1_5_T_9| () Bool false)
(define-fun |memory_model::choice_rf_3_16_2_5_T_10| () Bool false)
(define-fun |memory_model::choice_rf_3_16_4_40_T_11| () Bool true)
(define-fun |memory_model::choice_rf_4_39_0_11_T_12| () Bool true)
(define-fun |__CPROVER_threads_exited#8$rclk$8| () (_ BitVec 8) #b11111000)
(define-fun |memory_model::choice_rf_4_39_1_5_T_13| () Bool false)
(define-fun |memory_model::choice_rf_4_39_2_5_T_14| () Bool false)
(define-fun |memory_model::choice_rf_4_39_3_17_T_15| () Bool false)
(define-fun |memory_model::choice_rf_0_45_0_9_T_16| () Bool false)
(define-fun |memory_model::choice_rf_0_45_0_41_T_17| () Bool true)
(define-fun |memory_model::choice_rf_0_50_0_9_T_18| () Bool false)
(define-fun |memory_model::choice_rf_0_50_0_41_T_19| () Bool false)
(define-fun |memory_model::choice_rf_0_50_0_46_T_20| () Bool true)
(define-fun |memory_model::choice_rf_0_55_0_9_T_21| () Bool false)
(define-fun |memory_model::choice_rf_0_55_0_41_T_22| () Bool false)
(define-fun |memory_model::choice_rf_0_55_0_46_T_23| () Bool false)
(define-fun |memory_model::choice_rf_0_55_0_51_T_24| () Bool true)
(define-fun |memory_model::choice_rf_0_86_0_19_F_25| () Bool false)
(define-fun |memory_model::choice_rf_0_86_1_1_F_26| () Bool false)
(define-fun |x#4$wclk$8| () (_ BitVec 8) #b11101110)
(define-fun |x#2$rclk$8| () (_ BitVec 8) #b11111101)
(define-fun |memory_model::choice_rf_0_86_2_0_F_27| () Bool true)
(define-fun |x#5$wclk$8| () (_ BitVec 8) #b11101111)
(define-fun |memory_model::choice_rf_0_59_0_12_F_28| () Bool false)
(define-fun |memory_model::choice_rf_0_59_1_3_F_29| () Bool false)
(define-fun |__unbuffered_cnt#6$wclk$8| () (_ BitVec 8) #b11110101)
(define-fun |__unbuffered_cnt#2$rclk$8| () (_ BitVec 8) #b11111001)
(define-fun |memory_model::choice_rf_0_59_2_3_F_30| () Bool false)
(define-fun |__unbuffered_cnt#9$wclk$8| () (_ BitVec 8) #b11110110)
(define-fun |memory_model::choice_rf_0_59_3_15_F_31| () Bool false)
(define-fun |__unbuffered_cnt#12$wclk$8| () (_ BitVec 8) #b11110100)
(define-fun |memory_model::choice_rf_0_59_4_38_F_32| () Bool true)
(define-fun |__unbuffered_cnt#16$wclk$8| () (_ BitVec 8) #b11110111)
(define-fun |memory_model::choice_rf_1_2_0_12_F_33| () Bool false)
(define-fun |__unbuffered_cnt#1$wclk$8| () (_ BitVec 8) #b00100100)
(define-fun |__unbuffered_cnt#4$rclk$8| () (_ BitVec 8) #b11110101)
(define-fun |memory_model::choice_rf_1_2_2_3_F_34| () Bool false)
(define-fun |memory_model::choice_rf_1_2_3_15_F_35| () Bool true)
(define-fun |memory_model::choice_rf_1_2_4_38_F_36| () Bool false)
(define-fun |memory_model::choice_rf_2_2_0_12_F_37| () Bool false)
(define-fun |__unbuffered_cnt#7$rclk$8| () (_ BitVec 8) #b11110110)
(define-fun |memory_model::choice_rf_2_2_1_3_F_38| () Bool true)
(define-fun |memory_model::choice_rf_2_2_3_15_F_39| () Bool false)
(define-fun |memory_model::choice_rf_2_2_4_38_F_40| () Bool false)
(define-fun |memory_model::choice_rf_3_14_0_12_F_41| () Bool true)
(define-fun |__unbuffered_cnt#10$rclk$8| () (_ BitVec 8) #b11110100)
(define-fun |memory_model::choice_rf_3_14_1_3_F_42| () Bool false)
(define-fun |memory_model::choice_rf_3_14_2_3_F_43| () Bool false)
(define-fun |memory_model::choice_rf_3_14_4_38_F_44| () Bool false)
(define-fun |memory_model::choice_rf_4_37_0_12_F_45| () Bool false)
(define-fun |__unbuffered_cnt#13$rclk$8| () (_ BitVec 8) #b11110111)
(define-fun |memory_model::choice_rf_4_37_1_3_F_46| () Bool false)
(define-fun |memory_model::choice_rf_4_37_2_3_F_47| () Bool true)
(define-fun |memory_model::choice_rf_4_37_3_15_F_48| () Bool false)
(define-fun |memory_model::choice_rf_0_75_0_13_F_49| () Bool false)
(define-fun |memory_model::choice_rf_0_75_4_24_F_50| () Bool true)
(define-fun |__unbuffered_p3_EAX#6$wclk$8| () (_ BitVec 8) #b11101100)
(define-fun |__unbuffered_p3_EAX#2$rclk$8| () (_ BitVec 8) #b11111101)
(define-fun |memory_model::choice_rf_4_22_0_13_F_51| () Bool false)
(define-fun |__unbuffered_p3_EAX#1$wclk$8| () (_ BitVec 8) #b00100101)
(define-fun |__unbuffered_p3_EAX#5$rclk$8| () (_ BitVec 8) #b11101100)
(define-fun |memory_model::choice_rf_4_23_0_14_F_52| () Bool true)
(define-fun |a#1$wclk$8| () (_ BitVec 8) #b00100110)
(define-fun |a#3$rclk$8| () (_ BitVec 8) #b11101100)
(define-fun |memory_model::choice_rf_4_23_1_0_F_53| () Bool false)
(define-fun |a#2$wclk$8| () (_ BitVec 8) #b11101101)
(define-fun |memory_model::choice_rf_0_61_0_15_F_54| () Bool false)
(define-fun |memory_model::choice_rf_0_61_0_60_F_55| () Bool true)
(define-fun |memory_model::choice_rf_0_74_0_16_F_56| () Bool false)
(define-fun |main$tmp_guard1#5| () (_ BitVec 8) #b00000000)
(define-fun |memory_model::choice_rf_0_101_0_16_F_57| () Bool false)
(define-fun |memory_model::choice_rf_0_101_0_90_F_58| () Bool true)
(define-fun |memory_model::choice_rf_0_102_0_16_F_59| () Bool false)
(define-fun |memory_model::choice_rf_0_102_0_90_F_60| () Bool true)
(define-fun |memory_model::choice_rf_0_83_0_20_F_61| () Bool false)
(define-fun |memory_model::choice_rf_0_83_2_1_F_62| () Bool false)
(define-fun |y#4$wclk$8| () (_ BitVec 8) #b11110000)
(define-fun |y#2$rclk$8| () (_ BitVec 8) #b11111101)
(define-fun |memory_model::choice_rf_0_83_3_0_F_63| () Bool true)
(define-fun |y#5$wclk$8| () (_ BitVec 8) #b11110001)
(define-fun |memory_model::choice_rf_0_62_0_21_F_64| () Bool false)
(define-fun |memory_model::choice_rf_0_62_3_1_F_65| () Bool false)
(define-fun |z#15$wclk$8| () (_ BitVec 8) #b11110010)
(define-fun |z#2$rclk$8| () (_ BitVec 8) #b11111100)
(define-fun |memory_model::choice_rf_0_62_3_13_F_66| () Bool false)
(define-fun |z#18$wclk$8| () (_ BitVec 8) #b11110011)
(define-fun |memory_model::choice_rf_0_62_4_36_F_67| () Bool true)
(define-fun |z#22$wclk$8| () (_ BitVec 8) #b11110100)
(define-fun |memory_model::choice_rf_0_81_0_21_F_68| () Bool false)
(define-fun |memory_model::choice_rf_0_81_0_73_F_69| () Bool true)
(define-fun |memory_model::choice_rf_0_81_3_1_F_70| () Bool false)
(define-fun |z#6$rclk$8| () (_ BitVec 8) #b11111101)
(define-fun |memory_model::choice_rf_0_81_3_13_F_71| () Bool false)
(define-fun |memory_model::choice_rf_0_81_4_36_F_72| () Bool false)
(define-fun |memory_model::choice_rf_3_2_0_21_F_73| () Bool false)
(define-fun |z#1$wclk$8| () (_ BitVec 8) #b00111011)
(define-fun |z#16$rclk$8| () (_ BitVec 8) #b11110011)
(define-fun |memory_model::choice_rf_3_2_0_73_F_74| () Bool false)
(define-fun |z#5$wclk$8| () (_ BitVec 8) #b11111100)
(define-fun |memory_model::choice_rf_3_2_0_94_F_75| () Bool false)
(define-fun |z#14$wclk$8| () (_ BitVec 8) #b11111101)
(define-fun |memory_model::choice_rf_3_2_3_1_F_76| () Bool true)
(define-fun |memory_model::choice_rf_3_2_4_36_F_77| () Bool false)
(define-fun |memory_model::choice_rf_4_25_0_21_F_78| () Bool false)
(define-fun |z#19$rclk$8| () (_ BitVec 8) #b11110100)
(define-fun |memory_model::choice_rf_4_25_0_73_F_79| () Bool false)
(define-fun |memory_model::choice_rf_4_25_0_94_F_80| () Bool false)
(define-fun |memory_model::choice_rf_4_25_3_1_F_81| () Bool false)
(define-fun |memory_model::choice_rf_4_25_3_13_F_82| () Bool true)
(define-fun |memory_model::choice_rf_0_79_0_22_F_83| () Bool false)
(define-fun |memory_model::choice_rf_0_82_0_23_F_84| () Bool false)
(define-fun |memory_model::choice_rf_0_67_0_24_F_85| () Bool true)
(define-fun |memory_model::choice_rf_0_84_0_24_F_86| () Bool false)
(define-fun |memory_model::choice_rf_0_84_0_70_F_87| () Bool true)
(define-fun |memory_model::choice_rf_4_8_0_24_F_88| () Bool true)
(define-fun |z$r_buff0_thd0#1$wclk$8| () (_ BitVec 8) #b00111110)
(define-fun |z$r_buff0_thd0#38$rclk$8| () (_ BitVec 8) #b11101011)
(define-fun |memory_model::choice_rf_4_8_0_70_F_89| () Bool false)
(define-fun |z$r_buff0_thd0#10$wclk$8| () (_ BitVec 8) #b11111100)
(define-fun |memory_model::choice_rf_4_8_0_91_F_90| () Bool false)
(define-fun |z$r_buff0_thd0#37$wclk$8| () (_ BitVec 8) #b11111101)
(define-fun |memory_model::choice_rf_4_6_0_25_F_91| () Bool true)
(define-fun |z$r_buff0_thd1#1$wclk$8| () (_ BitVec 8) #b01000111)
(define-fun |z$r_buff0_thd1#2$rclk$8| () (_ BitVec 8) #b11101011)
(define-fun |memory_model::choice_rf_4_4_0_26_F_92| () Bool true)
(define-fun |z$r_buff0_thd2#1$wclk$8| () (_ BitVec 8) #b01100000)
(define-fun |z$r_buff0_thd2#2$rclk$8| () (_ BitVec 8) #b11101011)
(define-fun |memory_model::choice_rf_3_7_0_27_F_93| () Bool true)
(define-fun |z$r_buff0_thd3#1$wclk$8| () (_ BitVec 8) #b01100001)
(define-fun |z$r_buff0_thd3#2$rclk$8| () (_ BitVec 8) #b11110011)
(define-fun |memory_model::choice_rf_4_2_0_27_F_94| () Bool true)
(define-fun |z$r_buff0_thd3#5$rclk$8| () (_ BitVec 8) #b11101011)
(define-fun |memory_model::choice_rf_4_2_3_10_F_95| () Bool false)
(define-fun |z$r_buff0_thd3#4$wclk$8| () (_ BitVec 8) #b11110011)
(define-fun |memory_model::choice_rf_4_1_0_28_F_96| () Bool true)
(define-fun |z$r_buff0_thd4#1$wclk$8| () (_ BitVec 8) #b11000010)
(define-fun |z$r_buff0_thd4#2$rclk$8| () (_ BitVec 8) #b11101011)
(define-fun |memory_model::choice_rf_4_30_0_28_F_97| () Bool false)
(define-fun |z$r_buff0_thd4#6$rclk$8| () (_ BitVec 8) #b11110100)
(define-fun |memory_model::choice_rf_4_30_4_12_F_98| () Bool true)
(define-fun |memory_model::choice_rf_0_64_0_29_F_99| () Bool false)
(define-fun |memory_model::choice_rf_0_64_4_17_F_100| () Bool true)
(define-fun |z$r_buff1_thd0#23$wclk$8| () (_ BitVec 8) #b11101011)
(define-fun |z$r_buff1_thd0#2$rclk$8| () (_ BitVec 8) #b11111100)
(define-fun |memory_model::choice_rf_0_85_0_29_F_101| () Bool false)
(define-fun |memory_model::choice_rf_0_85_0_69_F_102| () Bool true)
(define-fun |memory_model::choice_rf_0_85_4_17_F_103| () Bool false)
(define-fun |z$r_buff1_thd0#9$rclk$8| () (_ BitVec 8) #b11111101)
(define-fun |memory_model::choice_rf_4_7_0_29_F_104| () Bool false)
(define-fun |z$r_buff1_thd0#1$wclk$8| () (_ BitVec 8) #b11000100)
(define-fun |z$r_buff1_thd0#22$rclk$8| () (_ BitVec 8) #b11101011)
(define-fun |memory_model::choice_rf_4_7_0_69_F_105| () Bool false)
(define-fun |z$r_buff1_thd0#8$wclk$8| () (_ BitVec 8) #b11111100)
(define-fun |memory_model::choice_rf_4_7_0_89_F_106| () Bool false)
(define-fun |z$r_buff1_thd0#20$wclk$8| () (_ BitVec 8) #b11111101)
(define-fun |memory_model::choice_rf_4_5_0_30_F_107| () Bool false)
(define-fun |z$r_buff1_thd1#1$wclk$8| () (_ BitVec 8) #b11000101)
(define-fun |z$r_buff1_thd1#3$rclk$8| () (_ BitVec 8) #b11101011)
(define-fun |memory_model::choice_rf_4_3_0_31_F_108| () Bool false)
(define-fun |z$r_buff1_thd2#1$wclk$8| () (_ BitVec 8) #b11000110)
(define-fun |z$r_buff1_thd2#3$rclk$8| () (_ BitVec 8) #b11101011)
(define-fun |memory_model::choice_rf_3_5_0_32_F_109| () Bool false)
(define-fun |z$r_buff1_thd3#1$wclk$8| () (_ BitVec 8) #b11001000)
(define-fun |z$r_buff1_thd3#2$rclk$8| () (_ BitVec 8) #b11110011)
(define-fun |memory_model::choice_rf_3_5_4_13_F_110| () Bool true)
(define-fun |z$r_buff1_thd3#7$wclk$8| () (_ BitVec 8) #b11101011)
(define-fun |memory_model::choice_rf_4_10_0_32_F_111| () Bool false)
(define-fun |z$r_buff1_thd3#6$rclk$8| () (_ BitVec 8) #b11101011)
(define-fun |memory_model::choice_rf_4_10_3_9_F_112| () Bool false)
(define-fun |z$r_buff1_thd3#4$wclk$8| () (_ BitVec 8) #b11110011)
(define-fun |memory_model::choice_rf_4_0_0_33_F_113| () Bool false)
(define-fun |z$r_buff1_thd4#1$wclk$8| () (_ BitVec 8) #b11010000)
(define-fun |z$r_buff1_thd4#3$rclk$8| () (_ BitVec 8) #b11101011)
(define-fun |memory_model::choice_rf_4_27_0_33_F_114| () Bool false)
(define-fun |z$r_buff1_thd4#5$rclk$8| () (_ BitVec 8) #b11110100)
(define-fun |memory_model::choice_rf_4_27_4_15_F_115| () Bool true)
(define-fun |memory_model::choice_rf_0_66_0_36_F_116| () Bool false)
(define-fun |memory_model::choice_rf_0_66_4_20_F_117| () Bool true)
(define-fun |z$w_buff0#16$wclk$8| () (_ BitVec 8) #b11101011)
(define-fun |z$w_buff0#2$rclk$8| () (_ BitVec 8) #b11111100)
(define-fun |memory_model::choice_rf_0_87_0_36_F_118| () Bool false)
(define-fun |memory_model::choice_rf_0_87_4_20_F_119| () Bool true)
(define-fun |z$w_buff0#4$rclk$8| () (_ BitVec 8) #b11111101)
(define-fun |memory_model::choice_rf_3_6_0_36_F_120| () Bool false)
(define-fun |z$w_buff0#1$wclk$8| () (_ BitVec 8) #b11010011)
(define-fun |z$w_buff0#12$rclk$8| () (_ BitVec 8) #b11110011)
(define-fun |memory_model::choice_rf_3_6_0_93_F_121| () Bool false)
(define-fun |z$w_buff0#11$wclk$8| () (_ BitVec 8) #b11111101)
(define-fun |memory_model::choice_rf_3_6_4_20_F_122| () Bool true)
(define-fun |memory_model::choice_rf_4_11_0_36_F_123| () Bool true)
(define-fun |z$w_buff0#14$rclk$8| () (_ BitVec 8) #b11101011)
(define-fun |memory_model::choice_rf_4_11_0_93_F_124| () Bool false)
(define-fun |memory_model::choice_rf_4_29_0_36_F_125| () Bool false)
(define-fun |z$w_buff0#17$rclk$8| () (_ BitVec 8) #b11110100)
(define-fun |memory_model::choice_rf_4_29_0_93_F_126| () Bool false)
(define-fun |memory_model::choice_rf_4_29_4_20_F_127| () Bool true)
(define-fun |memory_model::choice_rf_0_68_0_37_F_128| () Bool false)
(define-fun |memory_model::choice_rf_0_68_3_12_F_129| () Bool false)
(define-fun |z$w_buff0_used#33$wclk$8| () (_ BitVec 8) #b11110011)
(define-fun |z$w_buff0_used#2$rclk$8| () (_ BitVec 8) #b11111100)
(define-fun |memory_model::choice_rf_0_68_4_18_F_130| () Bool false)
(define-fun |z$w_buff0_used#36$wclk$8| () (_ BitVec 8) #b11101011)
(define-fun |memory_model::choice_rf_0_68_4_35_F_131| () Bool true)
(define-fun |z$w_buff0_used#45$wclk$8| () (_ BitVec 8) #b11110100)
(define-fun |memory_model::choice_rf_0_78_0_37_F_132| () Bool false)
(define-fun |memory_model::choice_rf_0_78_0_72_F_133| () Bool true)
(define-fun |memory_model::choice_rf_0_78_3_12_F_134| () Bool false)
(define-fun |z$w_buff0_used#11$rclk$8| () (_ BitVec 8) #b11111101)
(define-fun |memory_model::choice_rf_0_78_4_18_F_135| () Bool false)
(define-fun |memory_model::choice_rf_0_78_4_35_F_136| () Bool false)
(define-fun |memory_model::choice_rf_3_8_0_37_F_137| () Bool false)
(define-fun |z$w_buff0_used#1$wclk$8| () (_ BitVec 8) #b11010100)
(define-fun |z$w_buff0_used#31$rclk$8| () (_ BitVec 8) #b11110011)
(define-fun |memory_model::choice_rf_3_8_0_72_F_138| () Bool false)
(define-fun |z$w_buff0_used#10$wclk$8| () (_ BitVec 8) #b11111100)
(define-fun |memory_model::choice_rf_3_8_0_97_F_139| () Bool false)
(define-fun |z$w_buff0_used#30$wclk$8| () (_ BitVec 8) #b11111101)
(define-fun |memory_model::choice_rf_3_8_4_18_F_140| () Bool true)
(define-fun |memory_model::choice_rf_3_8_4_35_F_141| () Bool false)
(define-fun |memory_model::choice_rf_4_9_0_37_F_142| () Bool true)
(define-fun |z$w_buff0_used#34$rclk$8| () (_ BitVec 8) #b11101011)
(define-fun |memory_model::choice_rf_4_9_0_72_F_143| () Bool false)
(define-fun |memory_model::choice_rf_4_9_0_97_F_144| () Bool false)
(define-fun |memory_model::choice_rf_4_9_3_12_F_145| () Bool false)
(define-fun |memory_model::choice_rf_4_31_0_37_F_146| () Bool false)
(define-fun |z$w_buff0_used#37$rclk$8| () (_ BitVec 8) #b11110100)
(define-fun |memory_model::choice_rf_4_31_0_72_F_147| () Bool false)
(define-fun |memory_model::choice_rf_4_31_0_97_F_148| () Bool false)
(define-fun |memory_model::choice_rf_4_31_3_12_F_149| () Bool true)
(define-fun |memory_model::choice_rf_4_31_4_18_F_150| () Bool false)
(define-fun |memory_model::choice_rf_0_63_0_38_F_151| () Bool false)
(define-fun |memory_model::choice_rf_0_63_4_21_F_152| () Bool true)
(define-fun |z$w_buff1#14$wclk$8| () (_ BitVec 8) #b11101011)
(define-fun |z$w_buff1#2$rclk$8| () (_ BitVec 8) #b11111100)
(define-fun |memory_model::choice_rf_0_88_0_38_F_153| () Bool false)
(define-fun |memory_model::choice_rf_0_88_4_21_F_154| () Bool true)
(define-fun |z$w_buff1#4$rclk$8| () (_ BitVec 8) #b11111101)
(define-fun |memory_model::choice_rf_3_3_0_38_F_155| () Bool false)
(define-fun |z$w_buff1#1$wclk$8| () (_ BitVec 8) #b11010110)
(define-fun |z$w_buff1#12$rclk$8| () (_ BitVec 8) #b11110011)
(define-fun |memory_model::choice_rf_3_3_0_92_F_156| () Bool false)
(define-fun |z$w_buff1#11$wclk$8| () (_ BitVec 8) #b11111101)
(define-fun |memory_model::choice_rf_3_3_4_21_F_157| () Bool true)
(define-fun |memory_model::choice_rf_4_26_0_38_F_158| () Bool false)
(define-fun |z$w_buff1#15$rclk$8| () (_ BitVec 8) #b11110100)
(define-fun |memory_model::choice_rf_4_26_0_92_F_159| () Bool false)
(define-fun |memory_model::choice_rf_4_26_4_21_F_160| () Bool true)
(define-fun |memory_model::choice_rf_0_65_0_39_F_161| () Bool false)
(define-fun |memory_model::choice_rf_0_65_3_11_F_162| () Bool false)
(define-fun |z$w_buff1_used#23$wclk$8| () (_ BitVec 8) #b11110011)
(define-fun |z$w_buff1_used#2$rclk$8| () (_ BitVec 8) #b11111100)
(define-fun |memory_model::choice_rf_0_65_4_19_F_163| () Bool false)
(define-fun |z$w_buff1_used#24$wclk$8| () (_ BitVec 8) #b11101011)
(define-fun |memory_model::choice_rf_0_65_4_34_F_164| () Bool true)
(define-fun |z$w_buff1_used#31$wclk$8| () (_ BitVec 8) #b11110100)
(define-fun |memory_model::choice_rf_0_76_0_39_F_165| () Bool false)
(define-fun |memory_model::choice_rf_0_76_0_71_F_166| () Bool true)
(define-fun |memory_model::choice_rf_0_76_3_11_F_167| () Bool false)
(define-fun |z$w_buff1_used#9$rclk$8| () (_ BitVec 8) #b11111101)
(define-fun |memory_model::choice_rf_0_76_4_19_F_168| () Bool false)
(define-fun |memory_model::choice_rf_0_76_4_34_F_169| () Bool false)
(define-fun |memory_model::choice_rf_3_4_0_39_F_170| () Bool false)
(define-fun |z$w_buff1_used#1$wclk$8| () (_ BitVec 8) #b11010111)
(define-fun |z$w_buff1_used#21$rclk$8| () (_ BitVec 8) #b11110011)
(define-fun |memory_model::choice_rf_3_4_0_71_F_171| () Bool false)
(define-fun |z$w_buff1_used#8$wclk$8| () (_ BitVec 8) #b11111100)
(define-fun |memory_model::choice_rf_3_4_0_99_F_172| () Bool false)
(define-fun |z$w_buff1_used#20$wclk$8| () (_ BitVec 8) #b11111101)
(define-fun |memory_model::choice_rf_3_4_4_19_F_173| () Bool true)
(define-fun |memory_model::choice_rf_3_4_4_34_F_174| () Bool false)
(define-fun |memory_model::choice_rf_4_28_0_39_F_175| () Bool false)
(define-fun |z$w_buff1_used#25$rclk$8| () (_ BitVec 8) #b11110100)
(define-fun |memory_model::choice_rf_4_28_0_71_F_176| () Bool false)
(define-fun |memory_model::choice_rf_4_28_0_99_F_177| () Bool false)
(define-fun |memory_model::choice_rf_4_28_3_11_F_178| () Bool true)
(define-fun |memory_model::choice_rf_4_28_4_19_F_179| () Bool false)
(define-fun |memory_model::choice_rf_0_80_0_17_F_180| () Bool false)
(define-fun |memory_model::choice_rf_0_77_0_18_F_181| () Bool false)
(define-fun |memory_model::choice_ws-ext_0_11_1_5_T_182| () Bool true)
(define-fun |memory_model::choice_ws-ext_0_11_2_5_T_183| () Bool true)
(define-fun |memory_model::choice_ws-ext_0_11_3_17_T_184| () Bool true)
(define-fun |memory_model::choice_ws-ext_0_11_4_40_T_185| () Bool true)
(define-fun |memory_model::choice_ws-ext_1_5_2_5_T_186| () Bool false)
(define-fun |memory_model::choice_ws-ext_1_5_3_17_T_187| () Bool false)
(define-fun |memory_model::choice_ws-ext_1_5_4_40_T_188| () Bool false)
(define-fun |memory_model::choice_ws-ext_2_5_3_17_T_189| () Bool false)
(define-fun |memory_model::choice_ws-ext_2_5_4_40_T_190| () Bool false)
(define-fun |memory_model::choice_ws-ext_3_17_4_40_T_191| () Bool false)
(define-fun |x#1$wclk$8| () (_ BitVec 8) #b00111001)
(define-fun |memory_model::choice_ws-ext_0_19_1_1_F_192| () Bool true)
(define-fun |memory_model::choice_ws-ext_0_19_2_0_F_193| () Bool true)
(define-fun |memory_model::choice_ws-ext_1_1_2_0_F_194| () Bool true)
(define-fun |memory_model::choice_ws-ext_0_12_1_3_F_195| () Bool true)
(define-fun |memory_model::choice_ws-ext_0_12_2_3_F_196| () Bool true)
(define-fun |memory_model::choice_ws-ext_0_12_3_15_F_197| () Bool true)
(define-fun |memory_model::choice_ws-ext_0_12_4_38_F_198| () Bool true)
(define-fun |memory_model::choice_ws-ext_1_3_2_3_F_199| () Bool true)
(define-fun |memory_model::choice_ws-ext_1_3_3_15_F_200| () Bool false)
(define-fun |memory_model::choice_ws-ext_1_3_4_38_F_201| () Bool true)
(define-fun |memory_model::choice_ws-ext_2_3_3_15_F_202| () Bool false)
(define-fun |memory_model::choice_ws-ext_2_3_4_38_F_203| () Bool true)
(define-fun |memory_model::choice_ws-ext_3_15_4_38_F_204| () Bool true)
(define-fun |memory_model::choice_ws-ext_0_13_4_24_F_205| () Bool true)
(define-fun |memory_model::choice_ws-ext_0_14_1_0_F_206| () Bool true)
(define-fun |y#1$wclk$8| () (_ BitVec 8) #b00111010)
(define-fun |memory_model::choice_ws-ext_0_20_2_1_F_207| () Bool true)
(define-fun |memory_model::choice_ws-ext_0_20_3_0_F_208| () Bool true)
(define-fun |memory_model::choice_ws-ext_2_1_3_0_F_209| () Bool true)
(define-fun |memory_model::choice_ws-ext_0_21_3_1_F_210| () Bool true)
(define-fun |memory_model::choice_ws-ext_0_21_3_13_F_211| () Bool true)
(define-fun |memory_model::choice_ws-ext_0_21_4_36_F_212| () Bool true)
(define-fun |memory_model::choice_ws-ext_0_73_3_1_F_213| () Bool false)
(define-fun |memory_model::choice_ws-ext_0_73_3_13_F_214| () Bool false)
(define-fun |memory_model::choice_ws-ext_0_73_4_36_F_215| () Bool false)
(define-fun |memory_model::choice_ws-ext_0_94_3_1_F_216| () Bool false)
(define-fun |memory_model::choice_ws-ext_0_94_3_13_F_217| () Bool false)
(define-fun |memory_model::choice_ws-ext_0_94_4_36_F_218| () Bool false)
(define-fun |memory_model::choice_ws-ext_3_1_4_36_F_219| () Bool true)
(define-fun |memory_model::choice_ws-ext_3_13_4_36_F_220| () Bool true)
(define-fun |memory_model::choice_ws-ext_0_27_3_10_F_221| () Bool true)
(define-fun |z$r_buff0_thd4#5$wclk$8| () (_ BitVec 8) #b11101011)
(define-fun |memory_model::choice_ws-ext_0_28_4_12_F_222| () Bool true)
(define-fun |z$r_buff0_thd4#14$wclk$8| () (_ BitVec 8) #b11110100)
(define-fun |memory_model::choice_ws-ext_0_28_4_33_F_223| () Bool true)
(define-fun |memory_model::choice_ws-ext_0_29_4_17_F_224| () Bool true)
(define-fun |memory_model::choice_ws-ext_0_69_4_17_F_225| () Bool false)
(define-fun |memory_model::choice_ws-ext_0_89_4_17_F_226| () Bool false)
(define-fun |z$r_buff1_thd1#4$wclk$8| () (_ BitVec 8) #b11101011)
(define-fun |memory_model::choice_ws-ext_0_30_4_16_F_227| () Bool true)
(define-fun |z$r_buff1_thd2#4$wclk$8| () (_ BitVec 8) #b11101011)
(define-fun |memory_model::choice_ws-ext_0_31_4_14_F_228| () Bool true)
(define-fun |memory_model::choice_ws-ext_0_32_3_9_F_229| () Bool true)
(define-fun |memory_model::choice_ws-ext_0_32_4_13_F_230| () Bool true)
(define-fun |memory_model::choice_ws-ext_3_9_4_13_F_231| () Bool false)
(define-fun |z$r_buff1_thd4#4$wclk$8| () (_ BitVec 8) #b11101011)
(define-fun |memory_model::choice_ws-ext_0_33_4_15_F_232| () Bool true)
(define-fun |z$r_buff1_thd4#11$wclk$8| () (_ BitVec 8) #b11110100)
(define-fun |memory_model::choice_ws-ext_0_33_4_32_F_233| () Bool true)
(define-fun |memory_model::choice_ws-ext_0_36_4_20_F_234| () Bool true)
(define-fun |memory_model::choice_ws-ext_0_93_4_20_F_235| () Bool false)
(define-fun |memory_model::choice_ws-ext_0_37_3_12_F_236| () Bool true)
(define-fun |memory_model::choice_ws-ext_0_37_4_18_F_237| () Bool true)
(define-fun |memory_model::choice_ws-ext_0_37_4_35_F_238| () Bool true)
(define-fun |memory_model::choice_ws-ext_0_72_3_12_F_239| () Bool false)
(define-fun |memory_model::choice_ws-ext_0_72_4_18_F_240| () Bool false)
(define-fun |memory_model::choice_ws-ext_0_72_4_35_F_241| () Bool false)
(define-fun |memory_model::choice_ws-ext_0_97_3_12_F_242| () Bool false)
(define-fun |memory_model::choice_ws-ext_0_97_4_18_F_243| () Bool false)
(define-fun |memory_model::choice_ws-ext_0_97_4_35_F_244| () Bool false)
(define-fun |memory_model::choice_ws-ext_3_12_4_18_F_245| () Bool false)
(define-fun |memory_model::choice_ws-ext_3_12_4_35_F_246| () Bool true)
(define-fun |memory_model::choice_ws-ext_0_38_4_21_F_247| () Bool true)
(define-fun |memory_model::choice_ws-ext_0_92_4_21_F_248| () Bool false)
(define-fun |memory_model::choice_ws-ext_0_39_3_11_F_249| () Bool true)
(define-fun |memory_model::choice_ws-ext_0_39_4_19_F_250| () Bool true)
(define-fun |memory_model::choice_ws-ext_0_39_4_34_F_251| () Bool true)
(define-fun |memory_model::choice_ws-ext_0_71_3_11_F_252| () Bool false)
(define-fun |memory_model::choice_ws-ext_0_71_4_19_F_253| () Bool false)
(define-fun |memory_model::choice_ws-ext_0_71_4_34_F_254| () Bool false)
(define-fun |memory_model::choice_ws-ext_0_99_3_11_F_255| () Bool false)
(define-fun |memory_model::choice_ws-ext_0_99_4_19_F_256| () Bool false)
(define-fun |memory_model::choice_ws-ext_0_99_4_34_F_257| () Bool false)
(define-fun |memory_model::choice_ws-ext_3_11_4_19_F_258| () Bool false)
(define-fun |memory_model::choice_ws-ext_3_11_4_34_F_259| () Bool true)
(define-fun t1$43$spwnclk$8 () (_ BitVec 8) #b11011110)
(define-fun t1$48$spwnclk$8 () (_ BitVec 8) #b11100010)
(define-fun t1$53$spwnclk$8 () (_ BitVec 8) #b11100110)
(define-fun t1$58$spwnclk$8 () (_ BitVec 8) #b11101010)
(define-fun |main::1::t1520!0@1$wclk$8| () (_ BitVec 8) #b00000010)
(define-fun |main::1::t1521!0@1$wclk$8| () (_ BitVec 8) #b00000011)
(define-fun |main::1::t1522!0@1$wclk$8| () (_ BitVec 8) #b00001000)
(define-fun |__CPROVER_dead_object#1$wclk$8| () (_ BitVec 8) #b00001001)
(define-fun |__CPROVER_deallocated#1$wclk$8| () (_ BitVec 8) #b00001010)
(define-fun |__CPROVER_malloc_is_new_array#1$wclk$8| () (_ BitVec 8) #b00001011)
(define-fun |__CPROVER_malloc_object#1$wclk$8| () (_ BitVec 8) #b00010010)
(define-fun |__CPROVER_malloc_size#1$wclk$8| () (_ BitVec 8) #b00010011)
(define-fun |__CPROVER_memory_leak#1$wclk$8| () (_ BitVec 8) #b00100000)
(define-fun |__CPROVER_next_thread_id#1$wclk$8| () (_ BitVec 8) #b00100001)
(define-fun |__CPROVER_pipe_count#1$wclk$8| () (_ BitVec 8) #b00100010)
(define-fun |main$tmp_guard0#1$wclk$8| () (_ BitVec 8) #b00100111)
(define-fun |main$tmp_guard1#1$wclk$8| () (_ BitVec 8) #b00101010)
(define-fun |weak$$choice0#1$wclk$8| () (_ BitVec 8) #b00110011)
(define-fun |weak$$choice2#1$wclk$8| () (_ BitVec 8) #b00111000)
(define-fun |z$flush_delayed#1$wclk$8| () (_ BitVec 8) #b00111100)
(define-fun |z$mem_tmp#1$wclk$8| () (_ BitVec 8) #b00111101)
(define-fun |z$read_delayed#1$wclk$8| () (_ BitVec 8) #b11010001)
(define-fun |z$read_delayed_var#1$wclk$8| () (_ BitVec 8) #b11010010)
(define-fun |main::1::t1519!0@1#1$wclk$8| () (_ BitVec 8) #b11011000)
(define-fun |__CPROVER_next_thread_id#2$wclk$8| () (_ BitVec 8) #b11011010)
(define-fun |main::1::t1519!0@1#2$wclk$8| () (_ BitVec 8) #b11011100)
(define-fun |main::1::t1520!0@1#1$wclk$8| () (_ BitVec 8) #b11011111)
(define-fun |__CPROVER_next_thread_id#3$rclk$8| () (_ BitVec 8) #b11100000)
(define-fun |__CPROVER_next_thread_id#5$wclk$8| () (_ BitVec 8) #b11100000)
(define-fun |main::1::t1520!0@1#2$wclk$8| () (_ BitVec 8) #b11100001)
(define-fun |main::1::t1521!0@1#1$wclk$8| () (_ BitVec 8) #b11100011)
(define-fun |__CPROVER_next_thread_id#6$rclk$8| () (_ BitVec 8) #b11100100)
(define-fun |__CPROVER_next_thread_id#8$wclk$8| () (_ BitVec 8) #b11100100)
(define-fun |main::1::t1521!0@1#2$wclk$8| () (_ BitVec 8) #b11100101)
(define-fun |main::1::t1522!0@1#1$wclk$8| () (_ BitVec 8) #b11100111)
(define-fun |__CPROVER_next_thread_id#9$rclk$8| () (_ BitVec 8) #b11101000)
(define-fun |__CPROVER_next_thread_id#11$wclk$8| () (_ BitVec 8) #b11101000)
(define-fun |main::1::t1522!0@1#2$wclk$8| () (_ BitVec 8) #b11101001)
(define-fun |main$tmp_guard0#2$wclk$8| () (_ BitVec 8) #b11111001)
(define-fun |main$tmp_guard0#3$rclk$8| () (_ BitVec 8) #b11111010)
(define-fun |z$r_buff0_thd0#2$rclk$8| () (_ BitVec 8) #b11111100)
(define-fun |main$tmp_guard1#3$rclk$8| () (_ BitVec 8) #b11111101)
(define-fun |weak$$choice2#3$rclk$8| () (_ BitVec 8) #b11111101)
(define-fun |z$flush_delayed#3$rclk$8| () (_ BitVec 8) #b11111101)
(define-fun |weak$$choice0#3$rclk$8| () (_ BitVec 8) #b11111101)
(define-fun |z$mem_tmp#3$rclk$8| () (_ BitVec 8) #b11111101)
(define-fun |z$r_buff0_thd0#11$rclk$8| () (_ BitVec 8) #b11111101)
(define-fun |main$tmp_guard1#4$wclk$8| () (_ BitVec 8) #b11111101)
(define-fun |z$mem_tmp#5$wclk$8| () (_ BitVec 8) #b11111101)
(define-fun |z$flush_delayed#7$wclk$8| () (_ BitVec 8) #b11111101)
(define-fun |weak$$choice2#11$wclk$8| () (_ BitVec 8) #b11111101)
(define-fun |weak$$choice0#4$wclk$8| () (_ BitVec 8) #b11111101)
(define-fun |main$tmp_guard1#5$rclk$8| () (_ BitVec 8) #b11111110)
(define-fun |main$tmp_guard1#6$rclk$8| () (_ BitVec 8) #b11111111)
)

real	0m0.394s
user	0m0.373s
sys	0m0.020s
State: AC Run_time: 0.39580631256103516